p cnf 14 23
14 -12 -3 0
14 -9 -6 0
14 2 1 0
-13 -11 -10 0
-13 -11 -5 0
13 10 4 0
13 7 -3 0
13 7 -2 0
-12 11 -1 0
12 -5 -1 0
-12 4 3 0
-11 -9 6 0
11 -9 -5 0
-11 -7 -1 0
11 -5 -3 0
-11 5 -1 0
-10 -8 -4 0
10 5 3 0
-10 3 -1 0
9 3 2 0
8 -5 4 0
6 -4 -1 0
-6 3 2 0
